NAME: gen
TYPE: TSP
COMMENT: Optimal distance is 6.247483605763391
DIMENSION: 17
EDGE_WEIGHT_TYPE: EUC_2D
NODE_COORD_TYPE: TWOD_COORDS
DISPLAY_DATA_TYPE: COORD_DISPLAY
NODE_COORD_SECTION
1	-0.8502171357296143 -0.5264321628773555
2	-0.6026346363792563 0.7980172272802396
3	1.0 0.0
4	-0.9829730996839018 -0.18374951781657056
5	0.4457383557765377 -0.8951632913550626
6	0.9324722294043558 0.3612416661871529
7	0.7390089172206591 0.6736956436465572
8	0.9324722294043558 -0.36124166618715303
9	0.09226835946330202 0.9957341762950345
10	-0.9829730996839018 0.18374951781657037
11	0.7390089172206585 -0.6736956436465578
12	0.4457383557765383 0.8951632913550623
13	-0.2736629900720831 -0.961825643172819
14	0.09226835946330243 -0.9957341762950345
15	-0.850217135729614 0.5264321628773561
16	-0.6026346363792565 -0.7980172272802395
17	-0.27366299007208267 0.9618256431728192
EOF